&BANDS 
  prefix = 'stanene'
  outdir = '../tmp/'
  filband = 'sn_bands.out'
/