&BANDS
 outdir  = '../tmp/'
 prefix  = 'stanene'
 filband = 'stanene.bands'
/
