 &control
    calculation = 'nscf'
    restart_mode='from_scratch',
    prefix='stanene',
    tstress = .true.
    tprnfor = .true.
    pseudo_dir = '../pseudo/',
    outdir='../tmp/'
 /
 &system
    ibrav = 4,
    a=4.683527522,
    c=20,
    nat = 2,
    ntyp = 1,
    ecutwfc = 60.0, 
    ecutrho=480, 
    london=.true. , 
    nosym=.true. , 
    nbnd=100
    noncolin=.true., 
    lspinorb=.true. 
    occupations='smearing', 
    smearing='gaussian', 
    degauss=0.006
 /
 &electrons
    mixing_mode = 'plain'
    mixing_beta = 0.7
    conv_thr =  1.0d-5
 /
ATOMIC_SPECIES
Sn 118.710 Sn.rel-pbesol-dn-kjpaw_psl.0.2.UPF
ATOMIC_POSITIONS (crystal)
Sn            0.3333333330        0.6666666660        0.5000000000    
Sn            0.6666666660        0.3333333330        0.4578734224

 K_POINTS (crystal)
         100
        0.0000000000    0.0000000000    0.0000000000    1.0
        0.0000000000    0.0138888889    0.0000000000    1.0
        0.0000000000    0.0277777778    0.0000000000    1.0
        0.0000000000    0.0416666667    0.0000000000    1.0
        0.0000000000    0.0555555556    0.0000000000    1.0
        0.0000000000    0.0694444444    0.0000000000    1.0
        0.0000000000    0.0833333333    0.0000000000    1.0
        0.0000000000    0.0972222222    0.0000000000    1.0
        0.0000000000    0.1111111111    0.0000000000    1.0
        0.0000000000    0.1250000000    0.0000000000    1.0
        0.0000000000    0.1388888889    0.0000000000    1.0
        0.0000000000    0.1527777778    0.0000000000    1.0
        0.0000000000    0.1666666667    0.0000000000    1.0
        0.0000000000    0.1805555556    0.0000000000    1.0
        0.0000000000    0.1944444444    0.0000000000    1.0
        0.0000000000    0.2083333333    0.0000000000    1.0
        0.0000000000    0.2222222222    0.0000000000    1.0
        0.0000000000    0.2361111111    0.0000000000    1.0
        0.0000000000    0.2500000000    0.0000000000    1.0
        0.0000000000    0.2638888889    0.0000000000    1.0
        0.0000000000    0.2777777778    0.0000000000    1.0
        0.0000000000    0.2916666667    0.0000000000    1.0
        0.0000000000    0.3055555556    0.0000000000    1.0
        0.0000000000    0.3194444444    0.0000000000    1.0
        0.0000000000    0.3333333333    0.0000000000    1.0
        0.0000000000    0.3472222222    0.0000000000    1.0
        0.0000000000    0.3611111111    0.0000000000    1.0
        0.0000000000    0.3750000000    0.0000000000    1.0
        0.0000000000    0.3888888889    0.0000000000    1.0
        0.0000000000    0.4027777778    0.0000000000    1.0
        0.0000000000    0.4166666667    0.0000000000    1.0
        0.0000000000    0.4305555556    0.0000000000    1.0
        0.0000000000    0.4444444444    0.0000000000    1.0
        0.0000000000    0.4583333333    0.0000000000    1.0
        0.0000000000    0.4722222222    0.0000000000    1.0
        0.0000000000    0.4861111111    0.0000000000    1.0
        0.0000000000    0.5000000000    0.0000000000    1.0
        0.0158728571    0.4920633333    0.0000000000    1.0
        0.0317457143    0.4841266667    0.0000000000    1.0
        0.0476185714    0.4761900000    0.0000000000    1.0
        0.0634914286    0.4682533333    0.0000000000    1.0
        0.0793642857    0.4603166667    0.0000000000    1.0
        0.0952371429    0.4523800000    0.0000000000    1.0
        0.1111100000    0.4444433333    0.0000000000    1.0
        0.1269828571    0.4365066667    0.0000000000    1.0
        0.1428557143    0.4285700000    0.0000000000    1.0
        0.1587285714    0.4206333333    0.0000000000    1.0
        0.1746014286    0.4126966667    0.0000000000    1.0
        0.1904742857    0.4047600000    0.0000000000    1.0
        0.2063471429    0.3968233333    0.0000000000    1.0
        0.2222200000    0.3888866667    0.0000000000    1.0
        0.2380928571    0.3809500000    0.0000000000    1.0
        0.2539657143    0.3730133333    0.0000000000    1.0
        0.2698385714    0.3650766667    0.0000000000    1.0
        0.2857114286    0.3571400000    0.0000000000    1.0
        0.3015842857    0.3492033333    0.0000000000    1.0
        0.3174571429    0.3412666667    0.0000000000    1.0
        0.3333300000    0.3333300000    0.0000000000    1.0
        0.3253935714    0.3253935714    0.0000000000    1.0
        0.3174571429    0.3174571429    0.0000000000    1.0
        0.3095207143    0.3095207143    0.0000000000    1.0
        0.3015842857    0.3015842857    0.0000000000    1.0
        0.2936478571    0.2936478571    0.0000000000    1.0
        0.2857114286    0.2857114286    0.0000000000    1.0
        0.2777750000    0.2777750000    0.0000000000    1.0
        0.2698385714    0.2698385714    0.0000000000    1.0
        0.2619021429    0.2619021429    0.0000000000    1.0
        0.2539657143    0.2539657143    0.0000000000    1.0
        0.2460292857    0.2460292857    0.0000000000    1.0
        0.2380928571    0.2380928571    0.0000000000    1.0
        0.2301564286    0.2301564286    0.0000000000    1.0
        0.2222200000    0.2222200000    0.0000000000    1.0
        0.2142835714    0.2142835714    0.0000000000    1.0
        0.2063471429    0.2063471429    0.0000000000    1.0
        0.1984107143    0.1984107143    0.0000000000    1.0
        0.1904742857    0.1904742857    0.0000000000    1.0
        0.1825378571    0.1825378571    0.0000000000    1.0
        0.1746014286    0.1746014286    0.0000000000    1.0
        0.1666650000    0.1666650000    0.0000000000    1.0
        0.1587285714    0.1587285714    0.0000000000    1.0
        0.1507921429    0.1507921429    0.0000000000    1.0
        0.1428557143    0.1428557143    0.0000000000    1.0
        0.1349192857    0.1349192857    0.0000000000    1.0
        0.1269828571    0.1269828571    0.0000000000    1.0
        0.1190464286    0.1190464286    0.0000000000    1.0
        0.1111100000    0.1111100000    0.0000000000    1.0
        0.1031735714    0.1031735714    0.0000000000    1.0
        0.0952371429    0.0952371429    0.0000000000    1.0
        0.0873007143    0.0873007143    0.0000000000    1.0
        0.0793642857    0.0793642857    0.0000000000    1.0
        0.0714278571    0.0714278571    0.0000000000    1.0
        0.0634914286    0.0634914286    0.0000000000    1.0
        0.0555550000    0.0555550000    0.0000000000    1.0
        0.0476185714    0.0476185714    0.0000000000    1.0
        0.0396821429    0.0396821429    0.0000000000    1.0
        0.0317457143    0.0317457143    0.0000000000    1.0
        0.0238092857    0.0238092857    0.0000000000    1.0
        0.0158728571    0.0158728571    0.0000000000    1.0
        0.0079364286    0.0079364286    0.0000000000    1.0
        0.0000000000    0.0000000000    0.0000000000    1.0


