&CONTROL
  calculation = 'scf'
  etot_conv_thr =   2.0000000000d-05
  forc_conv_thr =   1.0000000000d-04
  outdir = '../tmp/'
  prefix = 'stanene'
  pseudo_dir = '../pseudo/'
  tprnfor = .true.
  tstress = .true.
  verbosity = 'high'
/
&SYSTEM
  degauss =   7.3498618000d-03
  ecutrho =   4.8000000000d+02
  ecutwfc =   6.0000000000d+01
  ibrav = 0
  nat = 2
  nosym = .false.
  ntyp = 1
  occupations = 'smearing'
  smearing = 'cold'
/
&ELECTRONS
  conv_thr =   4.0000000000d-10
  electron_maxstep = 80
  mixing_beta =   4.0000000000d-01
/
ATOMIC_SPECIES
Sn     118.71 Sn_pbe_v1.uspp.F.UPF
ATOMIC_POSITIONS crystal
Sn           0.3333333330       0.6666666660       0.5000000000 
Sn           0.6666666660       0.3333333330       0.5000000000 
K_POINTS automatic
11 11 3 0 0 0
CELL_PARAMETERS angstrom
      4.6800000000       0.0000000000       0.0000000000
     -2.3400000000       4.0529988897       0.0000000000
      0.0000000000       0.0000000000      20.0000000000