&DOS
outdir = '../tmp'
prefix = 'stanene'
fildos = 'stanene.dos'
/
