&DOS
prefix='stanene',
outdir='../tmp/',
fildos='sn_edos.dos',
/
