&control
calculation = 'scf'
prefix='stanene',
pseudo_dir = '../pseudo/',
outdir='../tmp/'
verbosity = 'high'
/
&system
ibrav = 4,
a=4.67999999737,
c=20,
nat = 2,
ntyp = 1,
ecutwfc = 60.0,
ecutrho = 480, 
nbnd = 16, 
occupations = 'smearing'
smearing = 'm-p'
degauss = 0.02
assume_isolated = '2D'
/
&electrons
mixing_beta = 0.7
conv_thr = 1.0d-7
/
ATOMIC_SPECIES
Sn 118.710 sn_pbesol_v1.4.uspp.F.UPF
ATOMIC_POSITIONS (crystal)
Sn            0.3333333330        0.6666666660        0.5000000000
Sn            0.6666666660        0.3333333330        0.5000000000
K_POINTS (automatic)
24 24 1 0 0 0