&INPUT
fildyn = 'stanene.dyn'
zasr = 'crystal'
flfrc = 'stanene.fc'
/

