&control
calculation = 'vc-relax'
prefix ='stanene',
pseudo_dir = '../pseudo/',
outdir='../tmp/',
etot_conv_thr = 1.0d-5,
forc_conv_thr = 1.0d-4,
/
&system
ibrav = 4,
a=4.68,
c=20,
nat = 2,
ntyp = 1,
ecutwfc = 60.0,
occupations = 'smearing',
smearing = 'mv',
degauss = 0.02,
/
&electrons
mixing_beta = 0.7,
conv_thr = 1.0d-9,
/
&ions
ion_dynamics = 'bfgs'
/
&cell
cell_dynamics = 'bfgs'
press_conv_thr= 0.05
cell_dofree = '2Dxy'
/
ATOMIC_SPECIES
Sn 118.710 Sn_pbe_v1.uspp.F.UPF
ATOMIC_POSITIONS (crystal)
Sn 0.333333333 0.666666666 0.500000000 0 0 0
Sn 0.666666666 0.333333333 0.400000000
K_POINTS {automatic}
24 24 1 0 0 0
