&PROJWFC
prefix = 'stanene'
outdir = '../tmp'
/

