&INPUTPH
outdir = '../tmp/'
prefix = 'stanene'
tr2_ph = 1d-14
ldisp  = .true.
!  recover = .true.
nq1    = 6
nq2    = 6
nq3    = 1
fildyn = 'stanene.dyn'
/
