&INPUTPP
outdir    = '../tmp/'
prefix    = 'stanene'
plot_num  = 0
/
&PLOT
iflag         = 3
output_format = 6
fileout       = 'sn_rho.cube'
nx            = 64
ny            = 64
nz            = 12
/
