&BANDS 
prefix = 'stanene',
outdir = '../tmp/',
filband = 'stanene.bands'
/

