&projwfc
    outdir       = '../tmp/'
    prefix       = 'stanene'
    ngauss       = 0
    degauss      = 0.02
    DeltaE       = 0.005
    kresolveddos = .true.
    filpdos      = 'stanene.k'
/

