&INPUTPP
outdir        = '../tmp/'
prefix        = 'stanene'
verbosity     = 'high'
/
