&INPUTPP
outdir    = '../tmp/'
prefix    = 'stanene_open'
seedname  = 'stanene'
write_unk = .true.
/
