&projwfc
prefix  = 'stanene'
outdir  = '../tmp'
/
